c WMC file for PBN EPFL/random_control/int2float_distill_EPFL/random_control/int2float_miter written by probABC
p cnf 116 303
16 -6 7 0
-16 6 0
-16 -7 0
17 -3 9 0
-17 3 0
-17 -9 0
18 2 8 0
-18 -2 0
-18 -8 0
19 -17 -18 0
-19 17 0
-19 18 0
20 5 -8 0
-20 -5 0
-20 8 0
21 -2 3 0
-21 2 0
-21 -3 0
22 20 -21 0
-22 -20 0
-22 21 0
23 19 22 0
-23 -19 0
-23 -22 0
24 -16 23 0
-24 16 0
-24 -23 0
25 5 -9 0
-25 -5 0
-25 9 0
26 -2 -5 0
-26 2 0
-26 5 0
27 -1 -26 0
-27 1 0
-27 26 0
28 1 26 0
-28 -1 0
-28 -26 0
29 6 7 0
-29 -6 0
-29 -7 0
30 8 -29 0
-30 -8 0
-30 29 0
31 25 -30 0
-31 -25 0
-31 30 0
32 27 28 0
-32 -27 0
-32 -28 0
33 -31 -32 0
-33 31 0
-33 32 0
34 3 -4 0
-34 -3 0
-34 4 0
35 -3 4 0
-35 3 0
-35 -4 0
36 34 35 0
-36 -34 0
-36 -35 0
37 -7 8 0
-37 7 0
-37 -8 0
38 36 -37 0
-38 -36 0
-38 37 0
39 4 9 0
-39 -4 0
-39 -9 0
40 -12 -39 0
-40 12 0
-40 39 0
41 38 -40 0
-41 -38 0
-41 40 0
42 24 -41 0
-42 -24 0
-42 41 0
43 33 -42 0
-43 -33 0
-43 42 0
44 -4 -5 0
-44 4 0
-44 5 0
45 -1 -2 0
-45 1 0
-45 2 0
46 -6 -7 0
-46 6 0
-46 7 0
47 8 29 0
-47 -8 0
-47 -29 0
48 46 -47 0
-48 -46 0
-48 47 0
49 -14 -17 0
-49 14 0
-49 17 0
50 -44 -45 0
-50 44 0
-50 45 0
51 -49 -50 0
-51 49 0
-51 50 0
52 48 -51 0
-52 -48 0
-52 51 0
53 -7 -8 0
-53 7 0
-53 8 0
54 -9 -53 0
-54 9 0
-54 53 0
55 10 54 0
-55 -10 0
-55 -54 0
56 -11 55 0
-56 11 0
-56 -55 0
57 -6 -8 0
-57 6 0
-57 8 0
58 9 57 0
-58 -9 0
-58 -57 0
59 -7 9 0
-59 7 0
-59 -9 0
60 -57 59 0
-60 57 0
-60 -59 0
61 -10 58 0
-61 10 0
-61 -58 0
62 60 -61 0
-62 -60 0
-62 61 0
63 -5 -6 0
-63 5 0
-63 6 0
64 3 -7 0
-64 -3 0
-64 7 0
65 8 -64 0
-65 -8 0
-65 64 0
66 -4 7 0
-66 4 0
-66 -7 0
67 -8 -66 0
-67 8 0
-67 66 0
68 65 67 0
-68 -65 0
-68 -67 0
69 -63 68 0
-69 63 0
-69 -68 0
70 -53 63 0
-70 53 0
-70 -63 0
71 44 46 0
-71 -44 0
-71 -46 0
72 2 -16 0
-72 -2 0
-72 16 0
73 -3 6 0
-73 3 0
-73 -6 0
74 -7 -73 0
-74 7 0
-74 73 0
75 -44 72 0
-75 44 0
-75 -72 0
76 74 -75 0
-76 -74 0
-76 75 0
77 71 76 0
-77 -71 0
-77 -76 0
78 4 -6 0
-78 -4 0
-78 6 0
79 3 -66 0
-79 -3 0
-79 66 0
80 78 79 0
-80 -78 0
-80 -79 0
81 -5 80 0
-81 5 0
-81 -80 0
82 -4 5 0
-82 4 0
-82 -5 0
83 -6 -82 0
-83 6 0
-83 82 0
84 -1 4 0
-84 1 0
-84 -4 0
85 13 84 0
-85 -13 0
-85 -84 0
86 -13 -84 0
-86 13 0
-86 84 0
87 -5 7 0
-87 5 0
-87 -7 0
88 85 -87 0
-88 -85 0
-88 87 0
89 86 -88 0
-89 -86 0
-89 88 0
90 83 89 0
-90 -83 0
-90 -89 0
91 -2 90 0
-91 2 0
-91 -90 0
92 5 7 0
-92 -5 0
-92 -7 0
93 -44 45 0
-93 44 0
-93 -45 0
94 92 93 0
-94 -92 0
-94 -93 0
95 6 94 0
-95 -6 0
-95 -94 0
96 91 95 0
-96 -91 0
-96 -95 0
97 -84 -87 0
-97 84 0
-97 87 0
98 83 97 0
-98 -83 0
-98 -97 0
99 -2 98 0
-99 2 0
-99 -98 0
100 95 99 0
-100 -95 0
-100 -99 0
101 96 100 0
-101 -96 0
-101 -100 0
102 -96 -100 0
-102 96 0
-102 100 0
103 8 -17 0
-103 -8 0
-103 17 0
104 70 -103 0
-104 -70 0
-104 103 0
105 56 -104 0
-105 -56 0
-105 104 0
106 62 69 0
-106 -62 0
-106 -69 0
107 81 -106 0
-107 -81 0
-107 106 0
108 77 -105 0
-108 -77 0
-108 105 0
109 -107 -108 0
-109 107 0
-109 108 0
110 101 -109 0
-110 -101 0
-110 109 0
111 102 -110 0
-111 -102 0
-111 110 0
112 43 52 0
-112 -43 0
-112 -52 0
113 111 -112 0
-113 -111 0
-113 112 0
114 10 11 0
-114 -10 0
-114 -11 0
115 113 -114 0
-115 -113 0
-115 114 0
15 -115 0
-15 115 0
15 0
w 1 0.500000
w 2 0.500000
w 3 0.500000
w 4 0.500000
w 5 0.500000
w 6 0.500000
w 7 0.500000
w 8 0.500000
w 9 0.500000
w 10 0.500000
w 11 0.500000
w 12 0.125000
w 13 0.125000
w 14 0.125000
w 16 -1
w 17 -1
w 18 -1
w 19 -1
w 20 -1
w 21 -1
w 22 -1
w 23 -1
w 24 -1
w 25 -1
w 26 -1
w 27 -1
w 28 -1
w 29 -1
w 30 -1
w 31 -1
w 32 -1
w 33 -1
w 34 -1
w 35 -1
w 36 -1
w 37 -1
w 38 -1
w 39 -1
w 40 -1
w 41 -1
w 42 -1
w 43 -1
w 44 -1
w 45 -1
w 46 -1
w 47 -1
w 48 -1
w 49 -1
w 50 -1
w 51 -1
w 52 -1
w 53 -1
w 54 -1
w 55 -1
w 56 -1
w 57 -1
w 58 -1
w 59 -1
w 60 -1
w 61 -1
w 62 -1
w 63 -1
w 64 -1
w 65 -1
w 66 -1
w 67 -1
w 68 -1
w 69 -1
w 70 -1
w 71 -1
w 72 -1
w 73 -1
w 74 -1
w 75 -1
w 76 -1
w 77 -1
w 78 -1
w 79 -1
w 80 -1
w 81 -1
w 82 -1
w 83 -1
w 84 -1
w 85 -1
w 86 -1
w 87 -1
w 88 -1
w 89 -1
w 90 -1
w 91 -1
w 92 -1
w 93 -1
w 94 -1
w 95 -1
w 96 -1
w 97 -1
w 98 -1
w 99 -1
w 100 -1
w 101 -1
w 102 -1
w 103 -1
w 104 -1
w 105 -1
w 106 -1
w 107 -1
w 108 -1
w 109 -1
w 110 -1
w 111 -1
w 112 -1
w 113 -1
w 114 -1
w 115 -1
w 15 -1
